data/medium_2.dzn
num_nodi = 6;
ufficio_postale = 5;
dim_borsa = 16;
max_step = 15;
elenco_lettere = [6, 1, 8, 6, 0, 0];
distanze = [|0, 25, 15, 2, 23, 4
|10, 0, 6, 1, 15, 6
|20, 21, 0, 10, 8, 5
|19, 21, 20, 0, 15, 11
|4, 19, 19, 14, 0, 21
|17, 17, 15, 8, 14, 0
|];
