data/medium_2.lp
node(1..6).

ufficio_postale(5).

dim_borsa(16).

time(1..15).

lettere(1,6).
lettere(2,1).
lettere(3,8).
lettere(4,6).
lettere(5,0).
lettere(6,0).

costo_arco(1, 1, 0).
costo_arco(1, 2, 25).
costo_arco(1, 3, 15).
costo_arco(1, 4, 2).
costo_arco(1, 5, 23).
costo_arco(1, 6, 4).

costo_arco(2, 1, 10).
costo_arco(2, 2, 0).
costo_arco(2, 3, 6).
costo_arco(2, 4, 1).
costo_arco(2, 5, 15).
costo_arco(2, 6, 6).

costo_arco(3, 1, 20).
costo_arco(3, 2, 21).
costo_arco(3, 3, 0).
costo_arco(3, 4, 10).
costo_arco(3, 5, 8).
costo_arco(3, 6, 5).

costo_arco(4, 1, 19).
costo_arco(4, 2, 21).
costo_arco(4, 3, 20).
costo_arco(4, 4, 0).
costo_arco(4, 5, 15).
costo_arco(4, 6, 11).

costo_arco(5, 1, 4).
costo_arco(5, 2, 19).
costo_arco(5, 3, 19).
costo_arco(5, 4, 14).
costo_arco(5, 5, 0).
costo_arco(5, 6, 21).

costo_arco(6, 1, 17).
costo_arco(6, 2, 17).
costo_arco(6, 3, 15).
costo_arco(6, 4, 8).
costo_arco(6, 5, 14).
costo_arco(6, 6, 0).

